p cnf 0 0
c K couleurs
7 12 17 22 27 32 0
8 13 18 23 28 33 0
9 14 19 24 29 34 0
10 15 20 25 30 35 0
11 16 21 26 31 36 0
1 0
-2 0
3 0
-4 0
5 0
-6 0
-8 0
-9 0
-10 0
-11 0
-14 0
-15 0
-16 0
-20 0
-21 0
-26 0
c 1 color par vertex et au plus 1
7 8 9 10 11 0
-8 -7 0
-9 -7 0
-10 -7 0
-11 -7 0
-9 -8 0
-10 -8 0
-11 -8 0
-10 -9 0
-11 -9 0
-11 -10 0
12 13 14 15 16 0
-13 -12 0
-14 -12 0
-15 -12 0
-16 -12 0
-14 -13 0
-15 -13 0
-16 -13 0
-15 -14 0
-16 -14 0
-16 -15 0
17 18 19 20 21 0
-18 -17 0
-19 -17 0
-20 -17 0
-21 -17 0
-19 -18 0
-20 -18 0
-21 -18 0
-20 -19 0
-21 -19 0
-21 -20 0
22 23 24 25 26 0
-23 -22 0
-24 -22 0
-25 -22 0
-26 -22 0
-24 -23 0
-25 -23 0
-26 -23 0
-25 -24 0
-26 -24 0
-26 -25 0
27 28 29 30 31 0
-28 -27 0
-29 -27 0
-30 -27 0
-31 -27 0
-29 -28 0
-30 -28 0
-31 -28 0
-30 -29 0
-31 -29 0
-31 -30 0
32 33 34 35 36 0
-33 -32 0
-34 -32 0
-35 -32 0
-36 -32 0
-34 -33 0
-35 -33 0
-36 -33 0
-35 -34 0
-36 -34 0
-36 -35 0
c gc coresp to G
-7 -13 37 0
-7 -13 -38 1 0
-7 -13 38 -1 0
-7 -14 39 0
-7 -14 -40 1 0
-7 -14 40 -1 0
-7 -15 41 0
-7 -15 -42 1 0
-7 -15 42 -1 0
-7 -16 43 0
-7 -16 -44 1 0
-7 -16 44 -1 0
-8 -12 37 0
-8 -12 -38 1 0
-8 -12 38 -1 0
-8 -14 45 0
-8 -14 -46 1 0
-8 -14 46 -1 0
-8 -15 47 0
-8 -15 -48 1 0
-8 -15 48 -1 0
-8 -16 49 0
-8 -16 -50 1 0
-8 -16 50 -1 0
-9 -12 39 0
-9 -12 -40 1 0
-9 -12 40 -1 0
-9 -13 45 0
-9 -13 -46 1 0
-9 -13 46 -1 0
-9 -15 51 0
-9 -15 -52 1 0
-9 -15 52 -1 0
-9 -16 53 0
-9 -16 -54 1 0
-9 -16 54 -1 0
-10 -12 41 0
-10 -12 -42 1 0
-10 -12 42 -1 0
-10 -13 47 0
-10 -13 -48 1 0
-10 -13 48 -1 0
-10 -14 51 0
-10 -14 -52 1 0
-10 -14 52 -1 0
-10 -16 55 0
-10 -16 -56 1 0
-10 -16 56 -1 0
-11 -12 43 0
-11 -12 -44 1 0
-11 -12 44 -1 0
-11 -13 49 0
-11 -13 -50 1 0
-11 -13 50 -1 0
-11 -14 53 0
-11 -14 -54 1 0
-11 -14 54 -1 0
-11 -15 55 0
-11 -15 -56 1 0
-11 -15 56 -1 0
-12 -18 37 0
-12 -18 -38 2 0
-12 -18 38 -2 0
-12 -19 39 0
-12 -19 -40 2 0
-12 -19 40 -2 0
-12 -20 41 0
-12 -20 -42 2 0
-12 -20 42 -2 0
-12 -21 43 0
-12 -21 -44 2 0
-12 -21 44 -2 0
-13 -17 37 0
-13 -17 -38 2 0
-13 -17 38 -2 0
-13 -19 45 0
-13 -19 -46 2 0
-13 -19 46 -2 0
-13 -20 47 0
-13 -20 -48 2 0
-13 -20 48 -2 0
-13 -21 49 0
-13 -21 -50 2 0
-13 -21 50 -2 0
-14 -17 39 0
-14 -17 -40 2 0
-14 -17 40 -2 0
-14 -18 45 0
-14 -18 -46 2 0
-14 -18 46 -2 0
-14 -20 51 0
-14 -20 -52 2 0
-14 -20 52 -2 0
-14 -21 53 0
-14 -21 -54 2 0
-14 -21 54 -2 0
-15 -17 41 0
-15 -17 -42 2 0
-15 -17 42 -2 0
-15 -18 47 0
-15 -18 -48 2 0
-15 -18 48 -2 0
-15 -19 51 0
-15 -19 -52 2 0
-15 -19 52 -2 0
-15 -21 55 0
-15 -21 -56 2 0
-15 -21 56 -2 0
-16 -17 43 0
-16 -17 -44 2 0
-16 -17 44 -2 0
-16 -18 49 0
-16 -18 -50 2 0
-16 -18 50 -2 0
-16 -19 53 0
-16 -19 -54 2 0
-16 -19 54 -2 0
-16 -20 55 0
-16 -20 -56 2 0
-16 -20 56 -2 0
-17 -23 37 0
-17 -23 -38 3 0
-17 -23 38 -3 0
-17 -24 39 0
-17 -24 -40 3 0
-17 -24 40 -3 0
-17 -25 41 0
-17 -25 -42 3 0
-17 -25 42 -3 0
-17 -26 43 0
-17 -26 -44 3 0
-17 -26 44 -3 0
-18 -22 37 0
-18 -22 -38 3 0
-18 -22 38 -3 0
-18 -24 45 0
-18 -24 -46 3 0
-18 -24 46 -3 0
-18 -25 47 0
-18 -25 -48 3 0
-18 -25 48 -3 0
-18 -26 49 0
-18 -26 -50 3 0
-18 -26 50 -3 0
-19 -22 39 0
-19 -22 -40 3 0
-19 -22 40 -3 0
-19 -23 45 0
-19 -23 -46 3 0
-19 -23 46 -3 0
-19 -25 51 0
-19 -25 -52 3 0
-19 -25 52 -3 0
-19 -26 53 0
-19 -26 -54 3 0
-19 -26 54 -3 0
-20 -22 41 0
-20 -22 -42 3 0
-20 -22 42 -3 0
-20 -23 47 0
-20 -23 -48 3 0
-20 -23 48 -3 0
-20 -24 51 0
-20 -24 -52 3 0
-20 -24 52 -3 0
-20 -26 55 0
-20 -26 -56 3 0
-20 -26 56 -3 0
-21 -22 43 0
-21 -22 -44 3 0
-21 -22 44 -3 0
-21 -23 49 0
-21 -23 -50 3 0
-21 -23 50 -3 0
-21 -24 53 0
-21 -24 -54 3 0
-21 -24 54 -3 0
-21 -25 55 0
-21 -25 -56 3 0
-21 -25 56 -3 0
-22 -28 37 0
-22 -28 -38 4 0
-22 -28 38 -4 0
-22 -29 39 0
-22 -29 -40 4 0
-22 -29 40 -4 0
-22 -30 41 0
-22 -30 -42 4 0
-22 -30 42 -4 0
-22 -31 43 0
-22 -31 -44 4 0
-22 -31 44 -4 0
-23 -27 37 0
-23 -27 -38 4 0
-23 -27 38 -4 0
-23 -29 45 0
-23 -29 -46 4 0
-23 -29 46 -4 0
-23 -30 47 0
-23 -30 -48 4 0
-23 -30 48 -4 0
-23 -31 49 0
-23 -31 -50 4 0
-23 -31 50 -4 0
-24 -27 39 0
-24 -27 -40 4 0
-24 -27 40 -4 0
-24 -28 45 0
-24 -28 -46 4 0
-24 -28 46 -4 0
-24 -30 51 0
-24 -30 -52 4 0
-24 -30 52 -4 0
-24 -31 53 0
-24 -31 -54 4 0
-24 -31 54 -4 0
-25 -27 41 0
-25 -27 -42 4 0
-25 -27 42 -4 0
-25 -28 47 0
-25 -28 -48 4 0
-25 -28 48 -4 0
-25 -29 51 0
-25 -29 -52 4 0
-25 -29 52 -4 0
-25 -31 55 0
-25 -31 -56 4 0
-25 -31 56 -4 0
-26 -27 43 0
-26 -27 -44 4 0
-26 -27 44 -4 0
-26 -28 49 0
-26 -28 -50 4 0
-26 -28 50 -4 0
-26 -29 53 0
-26 -29 -54 4 0
-26 -29 54 -4 0
-26 -30 55 0
-26 -30 -56 4 0
-26 -30 56 -4 0
-27 -33 37 0
-27 -33 -38 5 0
-27 -33 38 -5 0
-27 -34 39 0
-27 -34 -40 5 0
-27 -34 40 -5 0
-27 -35 41 0
-27 -35 -42 5 0
-27 -35 42 -5 0
-27 -36 43 0
-27 -36 -44 5 0
-27 -36 44 -5 0
-28 -32 37 0
-28 -32 -38 5 0
-28 -32 38 -5 0
-28 -34 45 0
-28 -34 -46 5 0
-28 -34 46 -5 0
-28 -35 47 0
-28 -35 -48 5 0
-28 -35 48 -5 0
-28 -36 49 0
-28 -36 -50 5 0
-28 -36 50 -5 0
-29 -32 39 0
-29 -32 -40 5 0
-29 -32 40 -5 0
-29 -33 45 0
-29 -33 -46 5 0
-29 -33 46 -5 0
-29 -35 51 0
-29 -35 -52 5 0
-29 -35 52 -5 0
-29 -36 53 0
-29 -36 -54 5 0
-29 -36 54 -5 0
-30 -32 41 0
-30 -32 -42 5 0
-30 -32 42 -5 0
-30 -33 47 0
-30 -33 -48 5 0
-30 -33 48 -5 0
-30 -34 51 0
-30 -34 -52 5 0
-30 -34 52 -5 0
-30 -36 55 0
-30 -36 -56 5 0
-30 -36 56 -5 0
-31 -32 43 0
-31 -32 -44 5 0
-31 -32 44 -5 0
-31 -33 49 0
-31 -33 -50 5 0
-31 -33 50 -5 0
-31 -34 53 0
-31 -34 -54 5 0
-31 -34 54 -5 0
-31 -35 55 0
-31 -35 -56 5 0
-31 -35 56 -5 0
-32 -8 37 0
-32 -8 -38 6 0
-32 -8 38 -6 0
-32 -9 39 0
-32 -9 -40 6 0
-32 -9 40 -6 0
-32 -10 41 0
-32 -10 -42 6 0
-32 -10 42 -6 0
-32 -11 43 0
-32 -11 -44 6 0
-32 -11 44 -6 0
-33 -7 37 0
-33 -7 -38 6 0
-33 -7 38 -6 0
-33 -9 45 0
-33 -9 -46 6 0
-33 -9 46 -6 0
-33 -10 47 0
-33 -10 -48 6 0
-33 -10 48 -6 0
-33 -11 49 0
-33 -11 -50 6 0
-33 -11 50 -6 0
-34 -7 39 0
-34 -7 -40 6 0
-34 -7 40 -6 0
-34 -8 45 0
-34 -8 -46 6 0
-34 -8 46 -6 0
-34 -10 51 0
-34 -10 -52 6 0
-34 -10 52 -6 0
-34 -11 53 0
-34 -11 -54 6 0
-34 -11 54 -6 0
-35 -7 41 0
-35 -7 -42 6 0
-35 -7 42 -6 0
-35 -8 47 0
-35 -8 -48 6 0
-35 -8 48 -6 0
-35 -9 51 0
-35 -9 -52 6 0
-35 -9 52 -6 0
-35 -11 55 0
-35 -11 -56 6 0
-35 -11 56 -6 0
-36 -7 43 0
-36 -7 -44 6 0
-36 -7 44 -6 0
-36 -8 49 0
-36 -8 -50 6 0
-36 -8 50 -6 0
-36 -9 53 0
-36 -9 -54 6 0
-36 -9 54 -6 0
-36 -10 55 0
-36 -10 -56 6 0
-36 -10 56 -6 0
c X
-58 7 0
-57 7 0
-58 13 0
-57 13 0
-58 1 0
-57 -1 0
58 -7 -13 -1 0
57 -7 -13 1 0
-60 7 0
-59 7 0
-60 14 0
-59 14 0
-60 1 0
-59 -1 0
60 -7 -14 -1 0
59 -7 -14 1 0
-62 7 0
-61 7 0
-62 15 0
-61 15 0
-62 1 0
-61 -1 0
62 -7 -15 -1 0
61 -7 -15 1 0
-64 7 0
-63 7 0
-64 16 0
-63 16 0
-64 1 0
-63 -1 0
64 -7 -16 -1 0
63 -7 -16 1 0
-66 8 0
-65 8 0
-66 12 0
-65 12 0
-66 1 0
-65 -1 0
66 -8 -12 -1 0
65 -8 -12 1 0
-68 8 0
-67 8 0
-68 14 0
-67 14 0
-68 1 0
-67 -1 0
68 -8 -14 -1 0
67 -8 -14 1 0
-70 8 0
-69 8 0
-70 15 0
-69 15 0
-70 1 0
-69 -1 0
70 -8 -15 -1 0
69 -8 -15 1 0
-72 8 0
-71 8 0
-72 16 0
-71 16 0
-72 1 0
-71 -1 0
72 -8 -16 -1 0
71 -8 -16 1 0
-74 9 0
-73 9 0
-74 12 0
-73 12 0
-74 1 0
-73 -1 0
74 -9 -12 -1 0
73 -9 -12 1 0
-76 9 0
-75 9 0
-76 13 0
-75 13 0
-76 1 0
-75 -1 0
76 -9 -13 -1 0
75 -9 -13 1 0
-78 9 0
-77 9 0
-78 15 0
-77 15 0
-78 1 0
-77 -1 0
78 -9 -15 -1 0
77 -9 -15 1 0
-80 9 0
-79 9 0
-80 16 0
-79 16 0
-80 1 0
-79 -1 0
80 -9 -16 -1 0
79 -9 -16 1 0
-82 10 0
-81 10 0
-82 12 0
-81 12 0
-82 1 0
-81 -1 0
82 -10 -12 -1 0
81 -10 -12 1 0
-84 10 0
-83 10 0
-84 13 0
-83 13 0
-84 1 0
-83 -1 0
84 -10 -13 -1 0
83 -10 -13 1 0
-86 10 0
-85 10 0
-86 14 0
-85 14 0
-86 1 0
-85 -1 0
86 -10 -14 -1 0
85 -10 -14 1 0
-88 10 0
-87 10 0
-88 16 0
-87 16 0
-88 1 0
-87 -1 0
88 -10 -16 -1 0
87 -10 -16 1 0
-90 11 0
-89 11 0
-90 12 0
-89 12 0
-90 1 0
-89 -1 0
90 -11 -12 -1 0
89 -11 -12 1 0
-92 11 0
-91 11 0
-92 13 0
-91 13 0
-92 1 0
-91 -1 0
92 -11 -13 -1 0
91 -11 -13 1 0
-94 11 0
-93 11 0
-94 14 0
-93 14 0
-94 1 0
-93 -1 0
94 -11 -14 -1 0
93 -11 -14 1 0
-96 11 0
-95 11 0
-96 15 0
-95 15 0
-96 1 0
-95 -1 0
96 -11 -15 -1 0
95 -11 -15 1 0
-98 12 0
-97 12 0
-98 18 0
-97 18 0
-98 2 0
-97 -2 0
98 -12 -18 -2 0
97 -12 -18 2 0
-100 12 0
-99 12 0
-100 19 0
-99 19 0
-100 2 0
-99 -2 0
100 -12 -19 -2 0
99 -12 -19 2 0
-102 12 0
-101 12 0
-102 20 0
-101 20 0
-102 2 0
-101 -2 0
102 -12 -20 -2 0
101 -12 -20 2 0
-104 12 0
-103 12 0
-104 21 0
-103 21 0
-104 2 0
-103 -2 0
104 -12 -21 -2 0
103 -12 -21 2 0
-106 13 0
-105 13 0
-106 17 0
-105 17 0
-106 2 0
-105 -2 0
106 -13 -17 -2 0
105 -13 -17 2 0
-108 13 0
-107 13 0
-108 19 0
-107 19 0
-108 2 0
-107 -2 0
108 -13 -19 -2 0
107 -13 -19 2 0
-110 13 0
-109 13 0
-110 20 0
-109 20 0
-110 2 0
-109 -2 0
110 -13 -20 -2 0
109 -13 -20 2 0
-112 13 0
-111 13 0
-112 21 0
-111 21 0
-112 2 0
-111 -2 0
112 -13 -21 -2 0
111 -13 -21 2 0
-114 14 0
-113 14 0
-114 17 0
-113 17 0
-114 2 0
-113 -2 0
114 -14 -17 -2 0
113 -14 -17 2 0
-116 14 0
-115 14 0
-116 18 0
-115 18 0
-116 2 0
-115 -2 0
116 -14 -18 -2 0
115 -14 -18 2 0
-118 14 0
-117 14 0
-118 20 0
-117 20 0
-118 2 0
-117 -2 0
118 -14 -20 -2 0
117 -14 -20 2 0
-120 14 0
-119 14 0
-120 21 0
-119 21 0
-120 2 0
-119 -2 0
120 -14 -21 -2 0
119 -14 -21 2 0
-122 15 0
-121 15 0
-122 17 0
-121 17 0
-122 2 0
-121 -2 0
122 -15 -17 -2 0
121 -15 -17 2 0
-124 15 0
-123 15 0
-124 18 0
-123 18 0
-124 2 0
-123 -2 0
124 -15 -18 -2 0
123 -15 -18 2 0
-126 15 0
-125 15 0
-126 19 0
-125 19 0
-126 2 0
-125 -2 0
126 -15 -19 -2 0
125 -15 -19 2 0
-128 15 0
-127 15 0
-128 21 0
-127 21 0
-128 2 0
-127 -2 0
128 -15 -21 -2 0
127 -15 -21 2 0
-130 16 0
-129 16 0
-130 17 0
-129 17 0
-130 2 0
-129 -2 0
130 -16 -17 -2 0
129 -16 -17 2 0
-132 16 0
-131 16 0
-132 18 0
-131 18 0
-132 2 0
-131 -2 0
132 -16 -18 -2 0
131 -16 -18 2 0
-134 16 0
-133 16 0
-134 19 0
-133 19 0
-134 2 0
-133 -2 0
134 -16 -19 -2 0
133 -16 -19 2 0
-136 16 0
-135 16 0
-136 20 0
-135 20 0
-136 2 0
-135 -2 0
136 -16 -20 -2 0
135 -16 -20 2 0
-138 17 0
-137 17 0
-138 23 0
-137 23 0
-138 3 0
-137 -3 0
138 -17 -23 -3 0
137 -17 -23 3 0
-140 17 0
-139 17 0
-140 24 0
-139 24 0
-140 3 0
-139 -3 0
140 -17 -24 -3 0
139 -17 -24 3 0
-142 17 0
-141 17 0
-142 25 0
-141 25 0
-142 3 0
-141 -3 0
142 -17 -25 -3 0
141 -17 -25 3 0
-144 17 0
-143 17 0
-144 26 0
-143 26 0
-144 3 0
-143 -3 0
144 -17 -26 -3 0
143 -17 -26 3 0
-146 18 0
-145 18 0
-146 22 0
-145 22 0
-146 3 0
-145 -3 0
146 -18 -22 -3 0
145 -18 -22 3 0
-148 18 0
-147 18 0
-148 24 0
-147 24 0
-148 3 0
-147 -3 0
148 -18 -24 -3 0
147 -18 -24 3 0
-150 18 0
-149 18 0
-150 25 0
-149 25 0
-150 3 0
-149 -3 0
150 -18 -25 -3 0
149 -18 -25 3 0
-152 18 0
-151 18 0
-152 26 0
-151 26 0
-152 3 0
-151 -3 0
152 -18 -26 -3 0
151 -18 -26 3 0
-154 19 0
-153 19 0
-154 22 0
-153 22 0
-154 3 0
-153 -3 0
154 -19 -22 -3 0
153 -19 -22 3 0
-156 19 0
-155 19 0
-156 23 0
-155 23 0
-156 3 0
-155 -3 0
156 -19 -23 -3 0
155 -19 -23 3 0
-158 19 0
-157 19 0
-158 25 0
-157 25 0
-158 3 0
-157 -3 0
158 -19 -25 -3 0
157 -19 -25 3 0
-160 19 0
-159 19 0
-160 26 0
-159 26 0
-160 3 0
-159 -3 0
160 -19 -26 -3 0
159 -19 -26 3 0
-162 20 0
-161 20 0
-162 22 0
-161 22 0
-162 3 0
-161 -3 0
162 -20 -22 -3 0
161 -20 -22 3 0
-164 20 0
-163 20 0
-164 23 0
-163 23 0
-164 3 0
-163 -3 0
164 -20 -23 -3 0
163 -20 -23 3 0
-166 20 0
-165 20 0
-166 24 0
-165 24 0
-166 3 0
-165 -3 0
166 -20 -24 -3 0
165 -20 -24 3 0
-168 20 0
-167 20 0
-168 26 0
-167 26 0
-168 3 0
-167 -3 0
168 -20 -26 -3 0
167 -20 -26 3 0
-170 21 0
-169 21 0
-170 22 0
-169 22 0
-170 3 0
-169 -3 0
170 -21 -22 -3 0
169 -21 -22 3 0
-172 21 0
-171 21 0
-172 23 0
-171 23 0
-172 3 0
-171 -3 0
172 -21 -23 -3 0
171 -21 -23 3 0
-174 21 0
-173 21 0
-174 24 0
-173 24 0
-174 3 0
-173 -3 0
174 -21 -24 -3 0
173 -21 -24 3 0
-176 21 0
-175 21 0
-176 25 0
-175 25 0
-176 3 0
-175 -3 0
176 -21 -25 -3 0
175 -21 -25 3 0
-178 22 0
-177 22 0
-178 28 0
-177 28 0
-178 4 0
-177 -4 0
178 -22 -28 -4 0
177 -22 -28 4 0
-180 22 0
-179 22 0
-180 29 0
-179 29 0
-180 4 0
-179 -4 0
180 -22 -29 -4 0
179 -22 -29 4 0
-182 22 0
-181 22 0
-182 30 0
-181 30 0
-182 4 0
-181 -4 0
182 -22 -30 -4 0
181 -22 -30 4 0
-184 22 0
-183 22 0
-184 31 0
-183 31 0
-184 4 0
-183 -4 0
184 -22 -31 -4 0
183 -22 -31 4 0
-186 23 0
-185 23 0
-186 27 0
-185 27 0
-186 4 0
-185 -4 0
186 -23 -27 -4 0
185 -23 -27 4 0
-188 23 0
-187 23 0
-188 29 0
-187 29 0
-188 4 0
-187 -4 0
188 -23 -29 -4 0
187 -23 -29 4 0
-190 23 0
-189 23 0
-190 30 0
-189 30 0
-190 4 0
-189 -4 0
190 -23 -30 -4 0
189 -23 -30 4 0
-192 23 0
-191 23 0
-192 31 0
-191 31 0
-192 4 0
-191 -4 0
192 -23 -31 -4 0
191 -23 -31 4 0
-194 24 0
-193 24 0
-194 27 0
-193 27 0
-194 4 0
-193 -4 0
194 -24 -27 -4 0
193 -24 -27 4 0
-196 24 0
-195 24 0
-196 28 0
-195 28 0
-196 4 0
-195 -4 0
196 -24 -28 -4 0
195 -24 -28 4 0
-198 24 0
-197 24 0
-198 30 0
-197 30 0
-198 4 0
-197 -4 0
198 -24 -30 -4 0
197 -24 -30 4 0
-200 24 0
-199 24 0
-200 31 0
-199 31 0
-200 4 0
-199 -4 0
200 -24 -31 -4 0
199 -24 -31 4 0
-202 25 0
-201 25 0
-202 27 0
-201 27 0
-202 4 0
-201 -4 0
202 -25 -27 -4 0
201 -25 -27 4 0
-204 25 0
-203 25 0
-204 28 0
-203 28 0
-204 4 0
-203 -4 0
204 -25 -28 -4 0
203 -25 -28 4 0
-206 25 0
-205 25 0
-206 29 0
-205 29 0
-206 4 0
-205 -4 0
206 -25 -29 -4 0
205 -25 -29 4 0
-208 25 0
-207 25 0
-208 31 0
-207 31 0
-208 4 0
-207 -4 0
208 -25 -31 -4 0
207 -25 -31 4 0
-210 26 0
-209 26 0
-210 27 0
-209 27 0
-210 4 0
-209 -4 0
210 -26 -27 -4 0
209 -26 -27 4 0
-212 26 0
-211 26 0
-212 28 0
-211 28 0
-212 4 0
-211 -4 0
212 -26 -28 -4 0
211 -26 -28 4 0
-214 26 0
-213 26 0
-214 29 0
-213 29 0
-214 4 0
-213 -4 0
214 -26 -29 -4 0
213 -26 -29 4 0
-216 26 0
-215 26 0
-216 30 0
-215 30 0
-216 4 0
-215 -4 0
216 -26 -30 -4 0
215 -26 -30 4 0
-218 27 0
-217 27 0
-218 33 0
-217 33 0
-218 5 0
-217 -5 0
218 -27 -33 -5 0
217 -27 -33 5 0
-220 27 0
-219 27 0
-220 34 0
-219 34 0
-220 5 0
-219 -5 0
220 -27 -34 -5 0
219 -27 -34 5 0
-222 27 0
-221 27 0
-222 35 0
-221 35 0
-222 5 0
-221 -5 0
222 -27 -35 -5 0
221 -27 -35 5 0
-224 27 0
-223 27 0
-224 36 0
-223 36 0
-224 5 0
-223 -5 0
224 -27 -36 -5 0
223 -27 -36 5 0
-226 28 0
-225 28 0
-226 32 0
-225 32 0
-226 5 0
-225 -5 0
226 -28 -32 -5 0
225 -28 -32 5 0
-228 28 0
-227 28 0
-228 34 0
-227 34 0
-228 5 0
-227 -5 0
228 -28 -34 -5 0
227 -28 -34 5 0
-230 28 0
-229 28 0
-230 35 0
-229 35 0
-230 5 0
-229 -5 0
230 -28 -35 -5 0
229 -28 -35 5 0
-232 28 0
-231 28 0
-232 36 0
-231 36 0
-232 5 0
-231 -5 0
232 -28 -36 -5 0
231 -28 -36 5 0
-234 29 0
-233 29 0
-234 32 0
-233 32 0
-234 5 0
-233 -5 0
234 -29 -32 -5 0
233 -29 -32 5 0
-236 29 0
-235 29 0
-236 33 0
-235 33 0
-236 5 0
-235 -5 0
236 -29 -33 -5 0
235 -29 -33 5 0
-238 29 0
-237 29 0
-238 35 0
-237 35 0
-238 5 0
-237 -5 0
238 -29 -35 -5 0
237 -29 -35 5 0
-240 29 0
-239 29 0
-240 36 0
-239 36 0
-240 5 0
-239 -5 0
240 -29 -36 -5 0
239 -29 -36 5 0
-242 30 0
-241 30 0
-242 32 0
-241 32 0
-242 5 0
-241 -5 0
242 -30 -32 -5 0
241 -30 -32 5 0
-244 30 0
-243 30 0
-244 33 0
-243 33 0
-244 5 0
-243 -5 0
244 -30 -33 -5 0
243 -30 -33 5 0
-246 30 0
-245 30 0
-246 34 0
-245 34 0
-246 5 0
-245 -5 0
246 -30 -34 -5 0
245 -30 -34 5 0
-248 30 0
-247 30 0
-248 36 0
-247 36 0
-248 5 0
-247 -5 0
248 -30 -36 -5 0
247 -30 -36 5 0
-250 31 0
-249 31 0
-250 32 0
-249 32 0
-250 5 0
-249 -5 0
250 -31 -32 -5 0
249 -31 -32 5 0
-252 31 0
-251 31 0
-252 33 0
-251 33 0
-252 5 0
-251 -5 0
252 -31 -33 -5 0
251 -31 -33 5 0
-254 31 0
-253 31 0
-254 34 0
-253 34 0
-254 5 0
-253 -5 0
254 -31 -34 -5 0
253 -31 -34 5 0
-256 31 0
-255 31 0
-256 35 0
-255 35 0
-256 5 0
-255 -5 0
256 -31 -35 -5 0
255 -31 -35 5 0
-258 32 0
-257 32 0
-258 8 0
-257 8 0
-258 6 0
-257 -6 0
258 -32 -8 -6 0
257 -32 -8 6 0
-260 32 0
-259 32 0
-260 9 0
-259 9 0
-260 6 0
-259 -6 0
260 -32 -9 -6 0
259 -32 -9 6 0
-262 32 0
-261 32 0
-262 10 0
-261 10 0
-262 6 0
-261 -6 0
262 -32 -10 -6 0
261 -32 -10 6 0
-264 32 0
-263 32 0
-264 11 0
-263 11 0
-264 6 0
-263 -6 0
264 -32 -11 -6 0
263 -32 -11 6 0
-266 33 0
-265 33 0
-266 7 0
-265 7 0
-266 6 0
-265 -6 0
266 -33 -7 -6 0
265 -33 -7 6 0
-268 33 0
-267 33 0
-268 9 0
-267 9 0
-268 6 0
-267 -6 0
268 -33 -9 -6 0
267 -33 -9 6 0
-270 33 0
-269 33 0
-270 10 0
-269 10 0
-270 6 0
-269 -6 0
270 -33 -10 -6 0
269 -33 -10 6 0
-272 33 0
-271 33 0
-272 11 0
-271 11 0
-272 6 0
-271 -6 0
272 -33 -11 -6 0
271 -33 -11 6 0
-274 34 0
-273 34 0
-274 7 0
-273 7 0
-274 6 0
-273 -6 0
274 -34 -7 -6 0
273 -34 -7 6 0
-276 34 0
-275 34 0
-276 8 0
-275 8 0
-276 6 0
-275 -6 0
276 -34 -8 -6 0
275 -34 -8 6 0
-278 34 0
-277 34 0
-278 10 0
-277 10 0
-278 6 0
-277 -6 0
278 -34 -10 -6 0
277 -34 -10 6 0
-280 34 0
-279 34 0
-280 11 0
-279 11 0
-280 6 0
-279 -6 0
280 -34 -11 -6 0
279 -34 -11 6 0
-282 35 0
-281 35 0
-282 7 0
-281 7 0
-282 6 0
-281 -6 0
282 -35 -7 -6 0
281 -35 -7 6 0
-284 35 0
-283 35 0
-284 8 0
-283 8 0
-284 6 0
-283 -6 0
284 -35 -8 -6 0
283 -35 -8 6 0
-286 35 0
-285 35 0
-286 9 0
-285 9 0
-286 6 0
-285 -6 0
286 -35 -9 -6 0
285 -35 -9 6 0
-288 35 0
-287 35 0
-288 11 0
-287 11 0
-288 6 0
-287 -6 0
288 -35 -11 -6 0
287 -35 -11 6 0
-290 36 0
-289 36 0
-290 7 0
-289 7 0
-290 6 0
-289 -6 0
290 -36 -7 -6 0
289 -36 -7 6 0
-292 36 0
-291 36 0
-292 8 0
-291 8 0
-292 6 0
-291 -6 0
292 -36 -8 -6 0
291 -36 -8 6 0
-294 36 0
-293 36 0
-294 9 0
-293 9 0
-294 6 0
-293 -6 0
294 -36 -9 -6 0
293 -36 -9 6 0
-296 36 0
-295 36 0
-296 10 0
-295 10 0
-296 6 0
-295 -6 0
296 -36 -10 -6 0
295 -36 -10 6 0
c x suite
-37 -38 58 66 98 106 138 146 178 186 218 226 258 266 0
-39 -40 60 74 100 114 140 154 180 194 220 234 260 274 0
-41 -42 62 82 102 122 142 162 182 202 222 242 262 282 0
-43 -44 64 90 104 130 144 170 184 210 224 250 264 290 0
-45 -46 68 76 108 116 148 156 188 196 228 236 268 276 0
-47 -48 70 84 110 124 150 164 190 204 230 244 270 284 0
-49 -50 72 92 112 132 152 172 192 212 232 252 272 292 0
-51 -52 78 86 118 126 158 166 198 206 238 246 278 286 0
-53 -54 80 94 120 134 160 174 200 214 240 254 280 294 0
-55 -56 88 96 128 136 168 176 208 216 248 256 288 296 0
-37 38 57 65 97 105 137 145 177 185 217 225 257 265 0
-39 40 59 73 99 113 139 153 179 193 219 233 259 273 0
-41 42 61 81 101 121 141 161 181 201 221 241 261 281 0
-43 44 63 89 103 129 143 169 183 209 223 249 263 289 0
-45 46 67 75 107 115 147 155 187 195 227 235 267 275 0
-47 48 69 83 109 123 149 163 189 203 229 243 269 283 0
-49 50 71 91 111 131 151 171 191 211 231 251 271 291 0
-51 52 77 85 117 125 157 165 197 205 237 245 277 285 0
-53 54 79 93 119 133 159 173 199 213 239 253 279 293 0
-55 56 87 95 127 135 167 175 207 215 247 255 287 295 0
c proper colo
-7 -12 0
-8 -13 0
-9 -14 0
-10 -15 0
-11 -16 0
-12 -17 0
-13 -18 0
-14 -19 0
-15 -20 0
-16 -21 0
-17 -22 0
-18 -23 0
-19 -24 0
-20 -25 0
-21 -26 0
-22 -27 0
-23 -28 0
-24 -29 0
-25 -30 0
-26 -31 0
-27 -32 0
-28 -33 0
-29 -34 0
-30 -35 0
-31 -36 0
-32 -7 0
-33 -8 0
-34 -9 0
-35 -10 0
-36 -11 0
37 297 298 299 0
39 300 301 302 0
41 303 304 305 0
43 306 307 308 0
45 309 310 311 0
47 312 313 314 0
49 315 316 317 0
51 318 319 320 0
53 321 322 323 0
55 324 325 326 0
-297 39 0
-297 45 0
-297 40 46 0
-297 -40 -46 0
297 -39 -45 40 -46 0
297 -39 -45 -40 46 0
-298 41 0
-298 47 0
-298 42 48 0
-298 -42 -48 0
298 -41 -47 42 -48 0
298 -41 -47 -42 48 0
-299 43 0
-299 49 0
-299 44 50 0
-299 -44 -50 0
299 -43 -49 44 -50 0
299 -43 -49 -44 50 0
-300 37 0
-300 45 0
-300 38 46 0
-300 -38 -46 0
300 -37 -45 38 -46 0
300 -37 -45 -38 46 0
-301 41 0
-301 51 0
-301 42 52 0
-301 -42 -52 0
301 -41 -51 42 -52 0
301 -41 -51 -42 52 0
-302 43 0
-302 53 0
-302 44 54 0
-302 -44 -54 0
302 -43 -53 44 -54 0
302 -43 -53 -44 54 0
-303 37 0
-303 47 0
-303 38 48 0
-303 -38 -48 0
303 -37 -47 38 -48 0
303 -37 -47 -38 48 0
-304 39 0
-304 51 0
-304 40 52 0
-304 -40 -52 0
304 -39 -51 40 -52 0
304 -39 -51 -40 52 0
-305 43 0
-305 55 0
-305 44 56 0
-305 -44 -56 0
305 -43 -55 44 -56 0
305 -43 -55 -44 56 0
-306 37 0
-306 49 0
-306 38 50 0
-306 -38 -50 0
306 -37 -49 38 -50 0
306 -37 -49 -38 50 0
-307 39 0
-307 53 0
-307 40 54 0
-307 -40 -54 0
307 -39 -53 40 -54 0
307 -39 -53 -40 54 0
-308 41 0
-308 55 0
-308 42 56 0
-308 -42 -56 0
308 -41 -55 42 -56 0
308 -41 -55 -42 56 0
-309 37 0
-309 39 0
-309 38 40 0
-309 -38 -40 0
309 -37 -39 38 -40 0
309 -37 -39 -38 40 0
-310 47 0
-310 51 0
-310 48 52 0
-310 -48 -52 0
310 -47 -51 48 -52 0
310 -47 -51 -48 52 0
-311 49 0
-311 53 0
-311 50 54 0
-311 -50 -54 0
311 -49 -53 50 -54 0
311 -49 -53 -50 54 0
-312 37 0
-312 41 0
-312 38 42 0
-312 -38 -42 0
312 -37 -41 38 -42 0
312 -37 -41 -38 42 0
-313 45 0
-313 51 0
-313 46 52 0
-313 -46 -52 0
313 -45 -51 46 -52 0
313 -45 -51 -46 52 0
-314 49 0
-314 55 0
-314 50 56 0
-314 -50 -56 0
314 -49 -55 50 -56 0
314 -49 -55 -50 56 0
-315 37 0
-315 43 0
-315 38 44 0
-315 -38 -44 0
315 -37 -43 38 -44 0
315 -37 -43 -38 44 0
-316 45 0
-316 53 0
-316 46 54 0
-316 -46 -54 0
316 -45 -53 46 -54 0
316 -45 -53 -46 54 0
-317 47 0
-317 55 0
-317 48 56 0
-317 -48 -56 0
317 -47 -55 48 -56 0
317 -47 -55 -48 56 0
-318 39 0
-318 41 0
-318 40 42 0
-318 -40 -42 0
318 -39 -41 40 -42 0
318 -39 -41 -40 42 0
-319 45 0
-319 47 0
-319 46 48 0
-319 -46 -48 0
319 -45 -47 46 -48 0
319 -45 -47 -46 48 0
-320 53 0
-320 55 0
-320 54 56 0
-320 -54 -56 0
320 -53 -55 54 -56 0
320 -53 -55 -54 56 0
-321 39 0
-321 43 0
-321 40 44 0
-321 -40 -44 0
321 -39 -43 40 -44 0
321 -39 -43 -40 44 0
-322 45 0
-322 49 0
-322 46 50 0
-322 -46 -50 0
322 -45 -49 46 -50 0
322 -45 -49 -46 50 0
-323 51 0
-323 55 0
-323 52 56 0
-323 -52 -56 0
323 -51 -55 52 -56 0
323 -51 -55 -52 56 0
-324 41 0
-324 43 0
-324 42 44 0
-324 -42 -44 0
324 -41 -43 42 -44 0
324 -41 -43 -42 44 0
-325 47 0
-325 49 0
-325 48 50 0
-325 -48 -50 0
325 -47 -49 48 -50 0
325 -47 -49 -48 50 0
-326 51 0
-326 53 0
-326 52 54 0
-326 -52 -54 0
326 -51 -53 52 -54 0
326 -51 -53 -52 54 0
